\ This file has been generated by DOcplex
\ ENCODING=ISO-8859-1
\Problem name: Market Sharing Problem

Minimize
 obj: s_plus_0 + s_plus_1 + s_plus_2 + s_minus_0 + s_minus_1 + s_minus_2
Subject To
 demand_constraint_0: 46 x_0 + 55 x_1 + 69 x_2 + x_3 + 87 x_4 + 72 x_5 + 50 x_6
                      + 9 x_7 + 58 x_8 + 94 x_9 + 55 x_10 + 55 x_11 + 57 x_12
                      + 36 x_13 + 50 x_14 + 44 x_15 + 38 x_16 + 52 x_17 + 3 x_18
                      + s_plus_0 - s_minus_0 = 465
 demand_constraint_1: 55 x_0 + 21 x_1 + 21 x_2 + 73 x_3 + 38 x_4 + 56 x_5
                      + 66 x_6 + 46 x_7 + 30 x_8 + 8 x_9 + 49 x_10 + 66 x_11
                      + 58 x_12 + 87 x_13 + 32 x_14 + 40 x_15 + 42 x_16
                      + 45 x_17 + 33 x_18 + 32 x_19 + s_plus_1 - s_minus_1 = 
                      449
 demand_constraint_2: 28 x_0 + 3 x_1 + 79 x_2 + 98 x_3 + 95 x_4 + 57 x_5
                      + 50 x_6 + 17 x_7 + 81 x_8 + 89 x_9 + 73 x_10 + 59 x_11
                      + 48 x_12 + 76 x_13 + 23 x_14 + 94 x_15 + 22 x_16
                      + 67 x_17 + 62 x_18 + 62 x_19 + s_plus_2 - s_minus_2 = 
                      591

Bounds
 0 <= x_0 <= 1
 0 <= x_1 <= 1
 0 <= x_2 <= 1
 0 <= x_3 <= 1
 0 <= x_4 <= 1
 0 <= x_5 <= 1
 0 <= x_6 <= 1
 0 <= x_7 <= 1
 0 <= x_8 <= 1
 0 <= x_9 <= 1
 0 <= x_10 <= 1
 0 <= x_11 <= 1
 0 <= x_12 <= 1
 0 <= x_13 <= 1
 0 <= x_14 <= 1
 0 <= x_15 <= 1
 0 <= x_16 <= 1
 0 <= x_17 <= 1
 0 <= x_18 <= 1
 0 <= x_19 <= 1
       s_plus_0 <= 931
       s_plus_1 <= 898
       s_plus_2 <= 1183
       s_minus_0 <= 931
       s_minus_1 <= 898
       s_minus_2 <= 1183

Binaries
 x_0 x_1 x_2 x_3 x_4 x_5 x_6 x_7 x_8 x_9 x_10 x_11 x_12 x_13 x_14 x_15 x_16 x_17
 x_18 x_19

Generals
 s_plus_0 s_plus_1 s_plus_2 s_minus_0 s_minus_1 s_minus_2
End
